63569.0
1776
1 2 5 6 7 8 9 10 11 12 13 14 15 16 17 18 19 20 22 23 27 28 31 32 33 34 35 36 38 39 40 41 42 43 45 46 48 49 50 52 53 55 56 57 61 64 65 67 68 69 71 73 74 77 78 80 81 82 83 85 87 89 90 91 92 93 94 95 96 98 